c status 280 1469274501405
c status 203 1469274501423
c status 195 1469274502749
c status 191 1469274505024
c status 186 1469274506993
s td 189 186 416
b 1 254 271
b 2 305 320
b 3 317 344
b 4 292 367
b 5 329 127
b 6 220 56
b 7 399 83
b 8 156 231 166
b 9 68 148 177
b 10 148 177 215
b 11 60 160 335
b 12 155 374 222
b 13 265 295 325
b 14 269 351 133
b 15 304 331 322
b 16 320 340 115
b 17 315 344 338
b 18 349 346 327
b 19 415 99 132
b 20 30 261 211 186 84 383 70 104 76 132 404 189 138 225 273 387 1
b 21 261 211 186 84 113 383 70 104 76 302 132 404 189 138 225 273 387 188 1 78 209
b 22 400 264 211 183 122 53 174 357
b 23 264 211 355 183 24 142 241 119 139 72 131 122 53 86 18 276 167 193 368 4 174 66 34 127 101 216 247 244 357 268
b 24 211 186 84 113 355 183 383 24 142 70 104 76 241 119 139 72 302 132 131 404 122 53 189 138 86 18 276 167 193 368 4 225 174 66 273 387 34 188 127 1 78 101 216 247 244 357 209 268 147
b 25 416 14 256 179 186 84 113 229 251 358 37 83 199 248 365 72 135 102 361 17 277 66 258 223 411 224 188 235
b 26 14 267 38 256 179 39 186 84 113 229 251 358 37 83 286 199 103 284 11 407 19 248 365 72 135 412 102 361 17 379 174 277 66 258 223 411 224 188 235 371 120
b 27 267 152 38 256 221 179 39 186 84 113 229 251 358 37 24 83 286 199 103 284 11 407 19 259 248 365 72 135 412 102 361 53 17 379 174 277 66 258 223 411 224 188 127 388 128 235 371 120
b 28 46 26 38 256 186 190 359 355 162 389 394 125 106 182 41 52 116 75 268
b 29 26 38 256 240 186 190 359 355 162 183 274 22 59 19 389 394 125 106 189 17 182 41 52 116 66 273 391 75 249 268 147
b 30 38 256 240 221 179 39 186 84 113 190 359 355 162 183 229 274 251 358 37 24 83 22 286 199 59 103 284 11 375 407 19 259 248 365 72 389 135 412 102 361 394 53 125 106 189 17 379 182 112 203 41 174 52 116 277 66 273 391 258 223 411 224 188 127 388 128 235 75 371 249 120 268 147
b 31 100 54 83 158 201
b 32 54 245 74 191 240 221 179 162 29 142 83 158 366 11 58 49 365 409 379 201 98 223 362 34 388 233 212 219
b 33 245 324 74 191 240 221 179 359 162 29 142 83 158 366 11 58 49 365 196 102 409 379 57 201 98 223 362 34 388 233 175 212 219
b 34 266 171 256 229 199 15
b 35 171 107 324 74 191 256 240 39 229 263 29 24 70 414 199 59 397 49 270 291 143 390 102 271 151 12 16 79 363 112 4 41 174 96 98 178 20 381 258 223 411 15 224 34 371 376 268
b 36 107 324 74 191 256 240 39 229 263 29 24 70 414 199 59 397 49 270 119 291 143 390 102 271 151 12 129 16 79 363 112 4 41 174 96 98 178 20 381 258 223 411 15 224 34 371 376 157 268
b 37 324 74 191 256 240 221 179 39 359 162 229 263 29 24 142 83 70 414 199 59 397 158 366 11 58 49 365 270 119 291 143 196 390 102 271 151 12 409 129 379 57 16 79 363 112 4 41 201 174 96 98 178 20 381 258 223 362 411 15 224 34 388 233 175 371 31 212 376 219 157 268
b 38 191 256 240 221 179 39 359 162 229 263 29 24 142 83 70 414 199 59 55 397 158 366 11 375 58 49 365 270 119 291 143 196 390 102 271 151 12 409 129 379 57 16 79 363 112 4 41 201 174 96 98 178 20 381 258 223 362 411 15 224 34 388 233 175 371 31 212 376 219 157 268
b 39 256 240 221 179 39 186 84 113 190 359 355 162 183 229 274 263 29 251 358 37 160 24 142 83 70 414 22 286 199 59 55 397 158 103 284 366 11 375 407 19 259 58 49 248 365 270 119 72 389 291 143 135 412 196 390 102 271 361 151 394 12 409 53 125 106 129 189 17 379 57 182 16 79 363 112 4 203 41 201 174 52 116 277 66 273 96 98 178 20 381 391 258 223 362 411 15 224 34 188 127 388 233 115 128 175 235 75 371 31 212 376 249 219 120 157 268 147
b 40 240 221 179 39 186 84 113 190 359 355 162 183 229 274 263 29 251 358 37 160 24 142 83 70 414 22 286 199 59 55 397 158 408 103 284 366 11 375 407 19 259 58 49 248 365 270 119 72 389 291 143 135 412 196 390 102 271 361 151 394 12 409 53 125 106 129 189 17 379 57 182 16 79 363 112 4 203 41 201 174 52 116 277 66 273 96 98 178 20 381 391 258 223 362 411 15 224 34 188 127 388 233 115 128 175 235 75 371 31 212 376 249 219 120 157 268 147
b 41 179 39 186 84 113 190 359 355 162 183 229 274 263 29 251 358 37 160 24 142 83 70 414 22 286 199 59 55 397 158 408 103 284 366 11 375 407 19 259 58 49 248 365 270 119 72 389 291 143 135 412 196 390 102 271 131 361 151 394 12 409 53 125 106 129 189 17 379 57 182 16 79 363 112 4 203 41 201 174 52 116 277 66 273 96 98 178 20 381 391 258 223 362 411 15 224 34 188 127 388 233 115 128 175 235 75 371 31 212 376 249 219 120 157 268 147
b 42 39 186 84 113 190 359 355 162 183 229 121 274 263 29 251 358 37 160 24 142 83 70 414 22 286 199 59 55 397 158 408 103 284 366 11 375 407 19 259 58 49 401 248 365 270 119 72 389 291 143 135 412 196 390 102 271 131 361 151 394 12 409 53 125 106 129 189 17 379 57 182 16 79 363 112 4 203 41 201 174 52 116 277 66 273 96 98 178 20 381 391 258 223 362 411 15 224 34 188 127 388 233 115 128 175 235 75 371 31 111 212 376 249 219 120 157 268 147
b 43 186 84 113 190 359 355 162 183 229 121 383 274 263 29 251 358 37 160 24 142 83 70 414 22 286 199 59 55 397 158 408 104 76 103 284 366 11 375 407 19 259 58 49 401 248 365 241 270 119 139 72 389 291 143 135 412 302 196 390 132 102 271 131 361 404 122 151 394 12 409 53 125 106 129 189 17 138 379 57 182 16 79 363 112 86 18 276 167 193 368 4 203 41 225 201 174 52 116 277 66 273 96 98 178 20 381 391 258 223 362 411 15 224 387 34 188 127 388 233 1 115 128 78 8 175 235 101 75 371 31 91 111 216 247 212 376 244 357 249 209 219 120 157 268 147
b 44 84 113 190 359 355 162 183 229 121 383 274 263 29 251 358 37 160 24 142 83 70 414 22 286 199 59 55 397 158 408 104 76 103 284 366 11 375 407 19 259 58 49 401 248 365 241 270 119 139 72 389 291 143 135 412 302 196 390 132 102 271 131 361 404 122 151 394 12 409 53 125 106 129 189 17 138 379 57 182 16 79 363 112 86 18 276 167 193 368 172 4 203 41 225 89 201 174 52 116 277 66 273 96 98 178 20 381 391 258 223 362 411 15 224 387 34 188 127 388 233 1 115 128 78 8 175 235 101 75 371 31 91 111 216 247 212 376 244 357 249 209 219 120 157 268 147
b 45 43 109 403 313 92 153 113 190 359 355 183 121 22 185 59 58 12 176 129 112 250 168 193 225 89 201 242 347 381 391 233 33 75 31
b 46 109 403 313 92 153 113 190 359 355 183 121 22 185 59 58 248 12 176 129 182 112 250 168 193 225 89 201 242 347 381 391 34 233 33 8 101 75 31
b 47 206 403 313 405 383 274 24 22 272 123 69 176 53 4 203 89 242 154 165 101 376 120 9
b 48 403 313 92 153 405 113 190 359 355 183 121 383 274 24 22 185 272 59 123 69 58 248 12 176 53 129 182 112 250 168 193 4 203 225 89 201 242 347 178 381 391 154 34 388 233 165 33 8 101 75 31 376 120 9
b 49 202 313 358 76
b 50 313 92 153 405 113 190 359 355 183 121 383 274 358 24 22 185 272 59 76 123 69 58 248 12 176 53 129 182 112 250 168 193 4 203 225 89 201 242 347 178 381 391 154 34 388 233 165 33 8 101 75 31 376 120 9
b 51 373 210 153 121 160 408 143 412 390 361 5 174 45 238 111
b 52 210 47 10 153 405 121 160 83 408 291 143 412 302 390 361 124 125 5 174 347 45 15 238 111 212
b 53 47 92 10 153 405 121 160 83 408 291 143 412 302 390 361 124 125 5 174 347 98 45 15 238 111 212
b 54 354 92 77 359 150 271 404 112 250 218 273 347 154 105 387
b 55 92 10 153 77 405 113 190 359 355 183 121 383 274 358 160 24 83 22 185 272 59 408 76 123 69 58 248 291 143 412 302 390 150 271 361 404 12 176 53 124 125 129 182 112 250 168 193 4 5 203 225 89 201 218 174 242 273 347 98 178 381 391 258 45 15 154 105 387 34 388 233 165 33 8 101 238 75 31 111 212 376 120 268 9
b 56 27 65 103 45
b 57 48 65 385 86
b 58 398 136 10 359 24 22 204 199 59 222 123 335 225 174 242 45 137 387 31 376
b 59 217 382 136 65 226 77 405 274 263 251 358 24 142 286 365 215 228 189 144 57 182 149 237 128 75
b 60 382 136 65 226 77 405 274 263 251 358 24 142 286 365 215 94 228 189 144 57 182 149 237 128 75
b 61 136 65 226 10 77 405 359 274 263 251 358 24 142 22 286 204 199 59 222 123 365 215 94 132 228 189 144 57 182 335 225 174 242 273 362 45 137 149 387 237 128 75 31 376
b 62 65 226 10 77 405 359 274 263 251 358 24 142 22 286 204 199 59 55 222 123 103 385 365 215 94 132 228 189 144 57 182 335 86 225 174 242 273 362 45 137 149 387 237 128 75 31 376
b 63 253 13 252 226 10 153 29 142 110 246 390 88 102 131 180 404 394 17 368 201 116 15 237 90
b 64 13 252 226 10 153 29 142 407 110 246 390 88 102 131 180 404 394 17 368 201 116 15 387 237 90
b 65 252 226 10 153 29 142 407 110 246 390 88 102 131 180 404 394 17 368 201 116 15 387 237 44 90 378
b 66 281 226 153 229 274 358 37 160 142 180 56 165 243 249 219
b 67 226 10 153 77 405 359 229 274 263 29 251 358 37 160 24 142 22 286 204 199 59 55 222 123 103 385 407 262 365 215 94 110 246 390 88 132 102 131 180 404 394 228 189 17 144 57 182 335 86 368 225 201 174 242 116 273 362 45 137 15 149 387 237 56 165 128 75 31 376 44 90 243 249 219 378
b 68 10 153 77 405 113 190 359 355 183 229 121 383 274 263 29 251 358 37 160 24 142 83 22 185 286 272 204 199 59 55 408 76 222 123 69 103 385 407 262 58 248 365 139 215 389 291 143 94 412 302 110 246 390 88 132 102 150 271 131 361 180 404 394 12 176 53 124 125 129 228 189 17 144 57 182 112 335 250 86 168 193 368 4 5 203 225 89 201 218 174 242 116 273 347 96 98 178 381 391 258 362 45 137 15 154 149 105 387 34 237 388 233 56 165 33 128 8 101 238 75 31 111 212 376 44 90 243 249 219 120 378 268 9
b 69 153 77 405 113 190 359 355 162 183 229 121 383 274 263 29 251 358 37 160 24 142 83 22 185 286 272 204 199 59 55 408 76 222 123 69 103 385 407 262 58 248 365 139 215 389 291 143 94 412 302 110 246 390 88 132 102 150 271 131 361 180 404 394 12 176 53 124 125 129 228 189 17 144 57 182 112 335 250 86 168 193 368 4 5 203 225 89 201 218 174 242 116 273 347 96 98 178 381 391 258 362 45 137 15 154 149 105 387 34 237 388 233 56 165 33 128 8 101 238 75 31 111 212 376 44 90 243 249 219 120 378 268 9
b 70 77 405 113 190 359 355 162 183 229 121 383 274 263 29 251 358 37 160 24 142 83 414 22 185 286 272 204 199 59 55 408 76 222 123 69 103 385 407 262 58 248 365 139 215 389 291 143 94 412 302 110 246 390 88 132 102 150 271 131 361 180 404 394 12 176 53 124 125 129 228 189 17 144 57 182 112 335 250 86 168 193 368 4 5 203 225 89 201 218 174 242 116 273 347 96 98 178 381 391 258 362 45 137 15 154 149 105 387 34 237 388 233 56 165 33 128 8 101 238 75 31 111 212 376 44 90 243 249 219 120 157 378 268 9
b 71 405 113 190 359 355 162 183 229 121 383 274 263 29 251 358 37 160 24 142 83 414 22 185 286 272 204 199 59 55 158 408 76 222 123 69 103 385 407 262 58 248 365 139 215 389 291 143 94 412 302 110 246 390 88 132 102 150 271 131 361 180 404 394 12 176 53 124 125 129 228 189 17 144 57 182 112 335 250 86 168 193 368 4 5 203 225 89 201 218 174 242 116 273 347 96 98 178 381 391 258 362 45 137 15 154 149 105 387 34 237 388 233 56 165 33 128 8 101 238 75 31 111 212 376 44 90 243 249 219 120 157 378 268 9
b 72 113 190 359 355 162 183 229 121 383 274 263 29 251 358 37 160 24 142 83 70 414 22 185 286 272 204 199 59 55 397 158 408 104 76 222 123 69 103 284 366 11 375 385 407 262 19 259 58 49 401 248 365 241 270 119 139 215 72 389 291 143 135 94 412 302 110 246 196 390 88 132 102 150 271 131 361 180 404 122 151 394 12 176 409 53 124 125 106 129 228 189 17 138 144 379 57 182 16 79 363 112 335 250 86 18 276 167 168 193 368 172 4 5 203 41 225 89 201 218 174 242 52 116 277 66 273 347 96 98 178 20 381 391 258 223 362 45 137 411 15 154 224 149 105 387 34 188 237 127 388 233 56 165 33 1 115 128 78 8 175 235 101 238 75 371 31 91 111 216 247 212 376 44 90 243 244 357 249 209 219 120 157 378 268 9 147
b 73 359 355 162 183 229 121 383 274 263 29 251 358 37 160 24 142 83 70 414 22 185 286 272 204 199 59 55 397 158 408 104 76 222 123 69 103 284 366 11 375 385 407 262 19 259 58 49 401 248 365 241 270 119 139 215 72 389 291 143 135 94 356 412 302 110 246 196 390 88 132 102 150 271 131 361 180 404 122 151 394 12 176 409 53 124 125 106 129 228 189 17 138 144 379 57 182 16 79 363 112 335 250 86 18 276 167 168 193 368 172 4 5 203 41 225 89 201 218 174 242 52 116 277 66 273 347 96 98 178 20 381 391 258 223 362 45 137 411 15 154 224 149 105 387 34 188 237 127 388 233 56 165 33 1 115 128 78 8 175 235 101 238 75 371 31 91 111 216 247 212 376 44 90 243 244 357 249 209 219 120 157 378 268 9 147
b 74 355 162 183 229 121 383 274 263 29 251 358 37 160 24 142 83 70 414 22 185 286 272 204 199 59 55 397 158 408 104 76 222 123 69 103 284 366 11 375 385 407 262 19 259 58 49 401 248 365 241 270 119 139 215 72 389 291 143 135 94 356 412 302 110 246 196 390 88 132 102 150 271 131 361 180 404 122 151 394 12 176 409 53 124 125 106 129 228 189 17 138 144 379 57 182 16 79 363 112 335 250 86 18 276 167 168 193 368 172 4 5 203 41 225 89 201 218 174 242 52 116 277 66 273 347 96 98 178 20 381 391 258 223 362 45 137 411 15 154 224 149 105 387 34 188 237 127 388 233 56 165 33 1 115 128 78 8 175 235 101 133 238 75 371 31 91 111 216 247 212 376 44 90 243 244 357 249 209 219 120 157 378 268 9 147
b 75 162 183 229 121 383 274 263 29 251 358 37 160 24 142 83 70 414 22 185 286 272 204 199 59 55 397 158 408 104 76 222 123 69 103 284 366 11 375 385 407 262 19 259 58 49 401 248 365 173 241 270 119 139 215 72 389 291 143 135 94 356 412 302 110 246 196 390 88 132 102 150 271 131 361 180 404 122 151 394 12 176 409 53 124 125 106 129 228 189 17 138 144 379 57 182 16 79 363 112 335 250 86 18 276 167 168 193 368 172 4 5 203 41 225 89 201 218 174 242 52 116 277 66 273 347 96 98 178 20 381 391 258 223 362 45 137 411 15 154 224 149 105 387 34 188 237 127 388 233 56 165 33 1 115 128 78 8 175 235 101 133 238 75 371 31 91 111 216 247 212 376 44 90 243 244 357 249 209 219 120 157 378 268 9 147
b 76 121 383 274 263 29 251 358 37 160 24 142 83 70 414 22 185 286 272 204 199 59 55 397 158 408 104 76 222 123 69 103 284 366 11 375 385 407 262 19 259 58 49 401 248 365 173 241 270 119 139 215 72 389 291 143 135 94 356 412 302 110 246 196 390 88 132 102 150 271 131 361 180 404 122 151 394 12 176 409 53 124 125 106 129 228 189 17 138 144 379 57 182 16 79 363 112 335 250 86 18 276 167 168 193 368 172 4 5 203 41 225 89 201 218 174 242 52 116 277 66 273 347 96 98 178 20 381 391 258 223 362 45 137 411 15 154 224 149 105 387 34 188 237 127 388 233 56 165 33 1 115 128 78 8 175 235 101 25 133 238 75 371 31 91 111 216 247 212 376 44 90 243 244 357 249 209 219 120 157 378 268 9 147
b 77 251 358 37 160 24 142 83 70 414 22 185 393 141 286 272 204 199 59 55 397 158 408 93 104 76 222 123 69 103 284 366 11 375 385 407 262 19 259 58 49 401 248 365 173 241 270 119 139 215 72 389 291 143 135 94 356 412 302 110 246 196 390 88 132 102 150 271 131 361 180 404 122 151 394 12 176 409 53 124 125 106 129 228 189 17 138 144 379 57 182 16 79 363 112 239 335 250 86 18 276 167 168 193 368 172 4 5 203 41 225 89 201 218 174 242 52 116 277 66 273 347 96 98 178 20 381 391 258 223 362 45 137 411 15 154 224 149 105 387 34 188 367 410 237 127 388 233 56 165 33 1 115 128 78 8 175 235 101 25 133 238 75 371 31 91 111 216 247 212 376 44 90 243 244 357 249 209 219 120 157 378 268 9 147
b 78 3 95 7 360
b 79 42 81 257 6 95 214 117 374 184 255 375 407 259 110 335 250 368 277 258 154 34 410 31
b 80 81 257 6 95 214 117 374 184 255 236 375 407 259 110 182 335 250 368 277 258 154 34 410 8 31 9
b 81 50 257 85 282 392 414 143 135 390 102 150 271 180 228 347 258 223 362 45 62 360 376
b 82 257 85 6 95 214 117 374 184 255 236 282 392 414 375 407 259 143 135 110 390 102 150 271 180 228 182 335 250 368 277 347 258 223 362 45 154 34 410 78 8 62 31 360 376 243 9
b 83 36 161 85 159 69 246 165 235 216 249
b 84 161 82 372 85 159 69 94 356 246 239 410 165 235 216 249
b 85 82 372 85 159 69 94 356 246 122 239 218 410 165 235 216 249
b 86 194 372 377 284 94 102 124 357 157 378
b 87 372 85 6 380 159 377 69 284 94 356 246 102 122 124 57 239 218 174 410 165 235 75 216 357 249 157 378
b 88 231 6 166 124 276
b 89 85 6 95 214 380 117 159 374 184 255 236 282 392 377 414 69 284 375 407 259 143 135 94 356 110 246 390 102 150 271 180 122 124 228 57 182 239 335 250 368 218 174 242 277 347 258 223 362 45 154 34 410 165 78 8 235 75 62 31 360 216 376 243 357 249 157 378 9
b 90 6 95 214 380 117 159 374 184 255 166 236 282 392 377 414 69 284 375 407 259 143 135 94 356 110 246 390 102 150 271 180 122 124 228 57 182 239 335 250 276 368 203 218 174 242 277 347 258 223 362 45 154 34 410 165 78 8 235 75 62 31 360 216 376 243 357 249 157 378 9
b 91 114 97 19 49
b 92 97 51 198 19 49 360
b 93 51 208 214 159 198 70 19 49 189 363 89 130 235 360 216
b 94 71 208 380 407 110 122 151 224 181
b 95 23 396 285 95 64 207 104 138 144 379 182 347 98 233 62
b 96 396 285 95 64 207 104 228 138 144 379 182 79 347 98 388 233 62
b 97 260 370 285 208 95 214 374 35 384 377 141 286 199 55 123 69 366 11 58 106 17 138 379 57 96 137 34 101 219
b 98 370 285 208 95 214 374 35 384 377 141 286 199 55 123 69 366 11 58 106 17 138 379 57 96 137 34 237 101 25 219
b 99 285 208 95 214 374 35 64 207 384 377 141 286 199 55 104 76 123 69 366 11 58 246 106 228 17 138 144 379 57 182 79 347 96 98 137 34 237 388 233 101 25 62 219
b 100 108 208 61 225
b 101 208 95 214 380 117 159 7 374 35 61 198 64 207 384 377 70 141 286 199 59 55 104 76 123 69 366 11 407 19 58 49 110 246 122 151 106 228 189 17 138 144 379 57 182 16 79 363 225 89 218 347 96 98 137 411 224 34 237 127 388 233 130 235 101 25 62 181 360 216 247 44 219
b 102 406 117 185 241 270
b 103 95 214 380 117 159 7 374 184 35 255 166 236 61 198 282 392 64 207 384 377 70 414 141 286 204 199 59 55 104 76 123 69 284 366 11 375 407 19 259 58 49 143 135 94 356 110 246 390 102 150 271 180 122 151 124 106 228 189 17 138 144 379 57 182 16 79 363 239 335 250 276 368 203 225 89 218 174 242 277 347 96 98 258 223 362 45 137 411 154 224 34 410 237 127 388 233 165 78 130 8 235 101 25 75 62 31 181 360 216 247 376 44 243 357 249 219 157 378 9
b 104 380 117 159 7 374 184 35 255 166 236 61 198 282 392 64 207 384 377 70 414 141 286 204 199 59 55 104 76 123 69 284 366 11 375 407 19 259 58 49 143 135 94 356 110 246 390 102 150 271 180 122 151 124 106 228 189 17 138 144 379 57 182 16 79 363 239 335 250 276 368 4 203 225 89 218 174 242 277 347 96 98 258 223 362 45 137 411 154 224 34 410 237 127 388 233 165 78 130 8 235 101 25 75 62 31 181 360 216 247 376 44 243 357 249 219 157 378 9
b 105 117 159 7 374 184 35 255 166 236 61 198 282 392 64 207 384 377 70 414 185 141 286 204 199 59 55 104 76 123 69 284 366 11 375 407 19 259 58 49 241 270 143 135 94 356 110 246 390 102 150 271 180 122 151 124 106 228 189 17 138 144 379 57 182 16 79 363 239 335 250 276 368 4 203 225 89 218 174 242 277 347 96 98 20 258 223 362 45 137 411 154 224 34 410 237 127 388 233 165 78 130 8 235 101 25 238 75 62 31 181 360 216 247 376 44 243 357 249 219 157 378 9
b 106 99 32 61 110 132 151 89
b 107 32 40 205 134 7 35 255 61 198 282 207 384 397 104 58 270 119 139 110 132 122 151 394 12 53 57 167 5 203 89 52 116 137 224 149 105 188 9
b 108 40 87 205 146 134 7 35 255 61 198 282 207 384 59 397 104 58 270 119 139 291 110 132 122 151 394 12 53 138 379 57 167 5 203 89 242 52 116 66 137 224 149 105 188 367 336 9
b 109 87 205 146 134 7 35 255 61 198 282 207 384 59 397 104 58 270 119 139 291 110 132 122 151 394 12 53 138 379 57 167 5 203 89 242 52 116 66 137 224 149 105 188 367 1 336 9
b 110 369 413 228 79
b 111 195 413 146 374 255 158 123 69 262 41 52 371 31 181 219
b 112 413 227 205 63 146 374 255 392 64 207 384 70 22 158 222 123 69 262 248 365 389 151 228 17 144 79 41 89 218 52 277 66 105 188 2 371 31 181 216 219 147
b 113 227 205 63 146 374 255 392 64 207 384 70 22 158 222 123 69 262 248 365 215 389 88 361 151 129 228 17 144 79 41 89 218 52 277 66 105 188 237 78 2 101 371 31 181 216 219 157 147
b 114 205 63 146 134 7 374 35 255 166 61 198 282 392 64 207 384 70 22 59 397 158 104 222 123 69 262 58 248 365 270 119 139 215 389 291 110 88 132 361 122 151 394 12 53 129 228 17 138 144 379 57 79 167 5 203 41 89 218 242 52 116 277 66 137 224 149 105 188 367 237 1 78 336 2 175 101 75 371 31 181 216 219 157 9 147
b 115 145 134 164 35 103 58 86 18 73
b 116 118 395 63 159 166 236 384 241 215 72 361 180 404 176 189 57 225 89 201 218 242 52 34
b 117 28 126 395 401
b 118 126 395 19 401 138 116
b 119 230 278 395 146 134 184 392 393 49 180 276 172 178 362 33 1
b 120 278 395 146 134 184 392 393 272 49 246 180 276 172 178 362 33 1 181
b 121 395 63 146 134 159 184 166 236 392 384 393 272 19 49 401 241 215 72 246 361 180 404 176 189 138 57 276 172 225 89 201 218 242 52 116 178 362 34 33 1 91 181
b 122 63 146 134 164 159 7 374 184 35 255 166 236 61 198 282 392 64 207 384 70 22 393 272 59 397 158 104 222 123 69 262 19 58 49 401 248 365 241 270 119 139 215 72 389 291 110 246 88 132 361 180 404 122 151 394 12 176 53 129 228 189 17 138 144 379 57 16 79 276 167 172 5 203 41 225 89 201 218 242 52 116 277 66 178 362 137 224 149 105 34 188 367 237 33 1 78 336 2 175 101 75 371 31 91 181 216 219 157 9 147
b 123 134 164 159 7 374 184 35 255 166 236 61 198 282 392 64 207 384 70 22 393 272 59 397 158 104 222 123 69 103 262 19 259 58 49 401 248 365 241 270 119 139 215 72 389 291 110 246 88 132 361 180 404 122 151 394 12 176 409 53 129 228 189 17 138 144 379 57 16 79 86 18 276 167 172 5 203 41 225 89 201 218 242 52 116 277 66 178 362 137 224 149 105 34 188 367 237 33 1 78 336 2 175 101 73 75 371 31 91 181 216 219 157 9 147
b 124 192 402 169 234 236 377 158 408 259 58 248 150 404 409 53 125 129 52 362 224 149 188 115 175 44 120
b 125 280 402 169 385 356 363 168 203 273 364 170 216 147
b 126 402 169 234 236 377 158 408 385 259 58 248 356 150 404 409 53 125 129 363 86 168 203 52 273 362 224 149 188 115 175 364 170 216 44 357 120 147
b 127 169 234 164 236 377 158 408 385 259 58 248 356 150 404 409 53 125 129 363 86 168 203 52 273 362 45 224 149 188 115 175 364 170 216 44 357 120 147
b 128 213 177 361 168
b 129 177 67 166 215 88 361 124 168 368 203 223
b 130 67 234 166 215 196 88 361 124 168 368 203 223
b 131 234 164 166 236 377 158 408 375 385 259 58 248 215 356 302 196 88 150 361 404 409 53 124 125 129 363 86 18 168 368 203 52 273 223 362 45 224 149 188 115 175 364 170 216 44 357 120 147
b 132 164 159 7 374 184 35 255 166 236 61 198 282 392 64 207 384 377 70 22 393 272 59 397 158 408 104 222 123 69 103 375 385 262 19 259 58 49 401 248 365 241 270 119 139 215 72 389 291 94 356 412 302 110 246 196 390 88 132 150 361 180 404 122 151 394 12 176 409 53 124 125 129 228 189 17 138 144 379 57 16 79 363 86 18 276 167 168 368 172 5 203 41 225 89 201 218 242 52 116 277 66 273 178 223 362 45 137 224 149 105 34 188 367 237 33 1 115 78 130 336 2 175 235 101 73 75 371 31 364 170 91 181 216 44 357 219 120 157 9 147
b 133 159 7 374 184 35 255 166 236 61 198 282 392 64 207 384 377 70 414 22 185 393 141 286 272 204 199 59 55 397 158 408 104 76 222 123 69 103 284 366 11 375 385 407 262 19 259 58 49 401 248 365 241 270 119 139 215 72 389 291 143 135 94 356 412 302 110 246 196 390 88 132 102 150 271 361 180 404 122 151 394 12 176 409 53 124 125 106 129 228 189 17 138 144 379 57 182 16 79 363 239 335 250 86 18 276 167 168 368 172 4 5 203 41 225 89 201 218 174 242 52 116 277 66 273 347 96 98 178 20 258 223 362 45 137 411 154 224 149 105 34 188 367 410 237 127 388 233 165 33 1 115 78 130 336 2 8 175 235 101 73 25 238 75 62 371 31 364 170 91 181 360 216 247 376 44 243 357 249 219 120 157 378 9 147
b 134 374 184 35 255 166 236 61 198 282 392 64 207 384 377 70 414 22 185 393 141 286 272 204 199 59 55 397 158 408 93 104 76 222 123 69 103 284 366 11 375 385 407 262 19 259 58 49 401 248 365 241 270 119 139 215 72 389 291 143 135 94 356 412 302 110 246 196 390 88 132 102 150 271 361 180 404 122 151 394 12 176 409 53 124 125 106 129 228 189 17 138 144 379 57 182 16 79 363 239 335 250 86 18 276 167 168 368 172 4 5 203 41 225 89 201 218 174 242 52 116 277 66 273 347 96 98 178 20 258 223 362 45 137 411 154 224 149 105 34 188 367 410 237 127 388 233 165 33 1 115 78 130 336 2 8 175 235 101 73 25 238 75 62 371 31 364 170 91 181 360 216 247 376 44 243 357 249 219 120 157 378 9 147
b 135 184 35 255 166 236 61 198 282 392 64 207 384 377 70 414 22 185 393 141 286 272 204 199 59 55 397 158 408 93 104 76 222 123 69 103 284 366 11 375 385 407 262 19 259 58 49 401 248 365 173 241 270 119 139 215 72 389 291 143 135 94 356 412 302 110 246 196 390 88 132 102 150 271 361 180 404 122 151 394 12 176 409 53 124 125 106 129 228 189 17 138 144 379 57 182 16 79 363 239 335 250 86 18 276 167 168 193 368 172 4 5 203 41 225 89 201 218 174 242 52 116 277 66 273 347 96 98 178 20 258 223 362 45 137 411 154 224 149 105 34 188 367 410 237 127 388 233 165 33 1 115 78 130 336 2 8 175 235 101 73 25 238 75 62 371 31 364 170 91 181 360 216 247 376 44 243 357 249 219 120 157 378 9 147
b 136 236 61 198 282 392 64 207 384 377 70 414 22 185 393 141 286 272 204 199 59 55 397 158 408 93 104 76 222 123 69 103 284 366 11 375 385 407 262 19 259 58 49 401 248 365 173 241 270 119 139 215 72 389 291 143 135 94 356 412 302 110 246 196 390 88 132 102 150 271 361 180 404 122 151 394 12 176 409 53 124 125 106 129 228 189 17 138 144 379 57 182 16 79 363 239 335 250 86 18 276 167 168 193 368 172 4 5 203 41 225 89 201 218 174 242 52 116 277 66 273 347 96 98 178 20 258 223 362 45 137 411 15 154 224 149 105 34 188 367 410 237 127 388 233 165 33 1 115 78 130 336 2 8 175 235 101 73 25 238 75 62 371 31 364 170 91 181 360 216 247 376 44 243 357 249 219 120 157 378 9 147
b 137 64 207 384 377 70 414 22 185 393 141 286 272 204 199 59 55 397 158 408 93 104 76 222 123 69 103 284 366 11 375 385 407 262 19 259 58 49 401 248 365 173 241 270 119 139 215 72 389 291 143 135 94 356 412 302 110 246 196 390 88 132 102 150 271 361 180 404 122 151 394 12 176 409 53 124 125 106 129 228 189 17 138 144 379 57 182 16 79 363 239 335 250 86 18 276 167 168 193 368 172 4 5 203 41 225 89 201 218 174 242 52 116 277 66 273 347 96 98 178 20 258 223 362 45 137 411 15 154 224 149 105 34 188 367 410 237 127 388 233 165 33 1 115 78 130 336 2 8 175 235 101 73 25 238 75 62 371 31 364 170 91 181 360 111 216 247 376 44 243 357 249 219 120 157 378 9 147
b 138 207 384 377 70 414 22 185 393 141 286 272 204 199 59 55 397 158 408 93 104 76 222 123 69 103 284 366 11 375 385 407 262 19 259 58 49 401 248 365 173 241 270 119 139 215 72 389 291 143 135 94 356 412 302 110 246 196 390 88 132 102 150 271 131 361 180 404 122 151 394 12 176 409 53 124 125 106 129 228 189 17 138 144 379 57 182 16 79 363 239 335 250 86 18 276 167 168 193 368 172 4 5 203 41 225 89 201 218 174 242 52 116 277 66 273 347 96 98 178 20 258 223 362 45 137 411 15 154 224 149 105 34 188 367 410 237 127 388 233 165 33 1 115 78 130 336 2 8 175 235 101 73 25 238 75 62 371 31 364 170 91 181 360 111 216 247 376 44 243 357 249 219 120 157 378 9 147
b 139 200 390 239 127 101
b 140 386 70 225 277 216
b 141 70 414 22 185 393 141 286 272 204 199 59 55 397 158 408 93 104 76 222 123 69 103 284 366 11 375 385 407 262 19 259 58 49 401 248 365 173 241 270 119 139 215 72 389 291 143 135 94 356 412 302 110 246 196 390 88 132 102 150 271 131 361 180 404 122 151 394 12 176 409 53 124 125 106 129 228 189 17 138 144 379 57 182 16 79 363 112 239 335 250 86 18 276 167 168 193 368 172 4 5 203 41 225 89 201 218 174 242 52 116 277 66 273 347 96 98 178 20 381 391 258 223 362 45 137 411 15 154 224 149 105 387 34 188 367 410 237 127 388 233 56 165 33 1 115 128 78 130 336 2 8 175 235 101 73 25 133 238 75 62 371 31 364 170 91 181 360 111 216 247 212 376 44 90 243 244 357 249 209 219 120 157 378 268 9 147
b 142 262 19 259 58 49 401 248 365 173 241 270 119 139 215 72 389 291 143 135 94 356 412 302 110 246 196 390 88 132 102 150 271 131 361 180 404 122 151 394 12 176 409 53 124 125 106 129 228 189 17 138 144 379 57 182 16 79 363 112 239 335 250 86 18 276 167 168 193 368 172 4 5 203 41 225 89 201 218 174 242 52 116 277 66 273 347 96 98 178 20 381 391 258 223 362 45 137 411 15 154 224 149 105 387 34 188 367 410 237 127 388 233 56 165 33 1 115 128 78 130 336 2 8 175 235 101 73 25 133 238 75 62 371 31 364 170 91 181 360 111 216 247 212 376 44 90 243 244 187 357 249 209 219 120 157 378 268 9 147
b 143 248 365 173 241 270 119 139 215 72 389 291 143 135 94 356 412 302 110 246 196 390 88 132 102 150 271 131 361 180 404 122 151 394 12 176 409 53 124 125 106 129 228 189 17 138 144 379 57 182 16 79 363 112 239 335 250 86 18 276 167 168 193 368 172 4 5 203 41 225 89 201 218 174 242 52 116 277 66 273 347 96 98 178 20 381 391 258 223 362 45 137 411 15 154 224 149 105 387 34 188 367 410 237 127 388 233 56 165 33 1 115 128 232 78 130 336 2 8 175 235 101 73 25 133 238 75 62 371 31 364 170 91 181 360 111 216 247 212 376 44 90 243 244 187 357 249 209 219 120 157 378 268 9 147
b 144 279 80 140 21 130 336 73 371 364 170 91 181 360 111 216 247 212 376 120
b 145 288 298 140 128
b 146 307 298 275 343 232 78 2 8 101 90 147
b 147 296 298 197 332 294 316
b 148 350 298 327 318 340 293 334 128
b 149 298 287 140 327 197 318 340 332 294 275 343 316 293 334 128 232 78 2 8 101 90 147
b 150 287 140 328 327 197 318 340 332 294 275 343 338 316 293 334 128 232 78 2 8 101 90 147
b 151 140 328 327 21 197 318 340 332 294 275 343 338 316 293 334 367 128 232 78 130 336 2 8 101 73 371 364 170 91 181 360 111 216 247 212 376 90 120 268 147
b 152 321 344 323 328 327 301 340 332 127 115 232 175 357 9
b 153 344 323 328 327 301 340 332 275 338 127 33 115 232 175 101 357 9
b 154 303 341 348 323 327 297 232 2 175 209
b 155 341 348 323 327 297 33 1 232 2 175 209
b 156 319 346 348 297 128 25 44 378
b 157 346 348 327 297 197 128 25 44 90 378
b 158 348 323 327 297 197 33 1 128 232 2 175 25 44 90 187 209 378
b 159 299 283 323 343 44 243 147
b 160 323 328 327 301 297 197 340 332 275 343 338 127 33 1 115 128 232 2 175 101 25 44 90 243 187 357 209 378 9 147
b 161 328 327 301 21 297 197 318 340 332 294 275 343 338 316 293 334 367 127 33 1 115 128 232 78 130 336 2 8 175 101 73 25 371 364 170 91 181 360 111 216 247 212 376 44 90 243 187 357 209 120 378 268 9 147
b 162 345 290 310 306 322 316 293 244
b 163 290 310 306 322 294 275 316 293 244
b 164 312 310 343 338 293 334
b 165 310 306 322 21 340 294 275 343 338 316 293 334 115 128 244 378 9
b 166 333 306 8 175
b 167 306 322 330 21 340 294 275 343 338 316 293 334 115 128 8 175 244 378 9
b 168 295 314 325 337 410 127 388
b 169 314 325 337 21 297 334 410 127 388
b 170 325 337 322 21 297 334 410 127 388 101
b 171 352 300 326 337 330 301 101
b 172 300 326 337 330 301 367 101 243
b 173 308 163 351 326 322 21 197 318 316
b 174 163 353 351 326 322 21 197 318 316 165 235 249
b 175 353 351 326 337 322 330 21 297 197 318 332 316 165 78 235 249 209 9
b 176 331 351 322
b 177 351 326 337 322 330 21 297 197 318 340 332 316 165 78 235 133 249 209 9
b 178 326 337 322 330 301 21 297 197 318 340 332 294 316 367 165 78 235 101 133 243 249 209 9
b 179 337 322 330 301 21 297 197 318 340 332 294 316 334 367 410 127 388 165 78 235 101 133 243 249 209 9
b 180 322 330 301 21 297 197 318 340 332 294 275 343 338 316 293 334 367 410 127 388 165 115 128 78 8 175 235 101 133 243 244 249 209 378 9
b 181 309 311 332 294 338
b 182 311 332 294 338 334 56
b 183 301 21 297 197 318 340 332 294 275 343 338 316 293 334 367 410 127 388 165 33 1 115 128 232 78 130 336 2 8 175 235 101 73 25 133 371 364 170 91 181 360 111 216 247 212 376 44 90 243 244 187 357 249 209 120 378 268 9 147
b 184 21 297 197 318 340 332 294 275 343 338 316 293 334 367 410 127 388 165 33 1 115 128 232 78 130 336 2 8 175 235 101 73 25 133 75 62 371 31 364 170 91 181 360 111 216 247 212 376 44 90 243 244 187 357 249 209 120 157 378 268 9 147
b 185 197 318 340 332 294 275 343 338 316 293 334 367 410 237 127 388 233 165 33 1 115 128 232 78 130 336 2 8 175 235 101 73 25 133 238 75 62 371 31 364 170 91 181 360 111 216 247 212 376 44 90 243 244 187 357 249 209 219 120 157 378 268 9 147
b 186 332 294 275 343 338 316 293 334 367 410 237 127 388 233 56 165 33 1 115 128 232 78 130 336 2 8 175 235 101 73 25 133 238 75 62 371 31 364 170 91 181 360 111 216 247 212 376 44 90 243 244 187 357 249 209 219 120 157 378 268 9 147
b 187 289
b 188 339
b 189 342
1 35
35 36
36 37
37 38
38 39
39 40
40 41
41 42
42 43
43 44
44 72
72 73
73 74
74 75
75 76
76 77
77 141
141 138
138 137
137 136
136 135
135 134
134 133
141 142
142 143
133 132
72 71
71 70
70 69
69 68
133 105
105 104
104 103
132 123
123 122
122 114
68 55
68 67
39 30
103 101
103 90
90 89
143 186
186 185
185 184
184 183
55 50
50 48
183 161
43 24
132 131
114 113
114 109
109 108
67 62
30 27
89 82
62 61
101 99
122 121
113 112
27 26
161 151
48 46
131 127
108 107
127 126
183 180
46 45
37 33
30 29
24 23
161 160
99 98
98 97
33 32
26 25
89 87
180 179
126 124
82 80
55 53
67 65
61 60
53 52
65 64
60 59
64 63
48 47
121 116
151 150
179 178
80 79
82 81
150 149
24 21
61 58
180 167
29 28
178 177
121 120
177 175
151 144
99 96
160 153
160 158
167 165
21 20
120 119
87 85
112 111
52 51
96 95
85 84
55 54
67 66
101 93
153 152
126 125
131 130
175 174
130 129
158 155
149 146
179 170
158 157
155 154
84 83
87 86
123 115
170 169
174 173
165 163
101 94
178 172
23 22
157 156
163 162
149 148
172 171
169 168
107 106
186 182
121 118
93 92
160 159
35 34
149 147
165 164
182 181
44 140
32 31
90 88
138 139
105 102
50 49
167 166
112 110
62 56
62 57
129 128
118 117
92 91
103 78
149 145
101 100
106 19
185 16
129 10
10 9
72 11
177 14
113 12
157 18
153 17
173 176
176 15
168 13
88 8
37 7
152 5
69 6
172 4
153 3
16 2
1 187
1 188
1 189
